40
75
59	4
58	4
57	1
56	3
55	1
54	3
53	3
52	3
51	5
50	1
49	1
48	5
47	4
46	2
45	1
44	2
43	6
42	1
41	2
40	3
39	3
38	7
37	1
36	2
35	3
34	2
33	2
31	3
30	1
27	2
26	2
25	1
24	3
23	2
22	1
21	3
20	3
18	1
17	2
15	1
